c description: Tseitin formula on , with even charge
c generator: CNFgen (0.9.0)
c copyright: (C) 2012-2020 Massimo Lauria <massimo.lauria@uniroma1.it>
c url: https://massimolauria.net/cnfgen
c
p cnf 30 408
1 2 3 4 5 -6 0
1 2 3 4 -5 6 0
1 2 3 -4 5 6 0
1 2 3 -4 -5 -6 0
1 2 -3 4 5 6 0
1 2 -3 4 -5 -6 0
1 2 -3 -4 5 -6 0
1 2 -3 -4 -5 6 0
1 -2 3 4 5 6 0
1 -2 3 4 -5 -6 0
1 -2 3 -4 5 -6 0
1 -2 3 -4 -5 6 0
1 -2 -3 4 5 -6 0
1 -2 -3 4 -5 6 0
1 -2 -3 -4 5 6 0
1 -2 -3 -4 -5 -6 0
-1 2 3 4 5 6 0
-1 2 3 4 -5 -6 0
-1 2 3 -4 5 -6 0
-1 2 3 -4 -5 6 0
-1 2 -3 4 5 -6 0
-1 2 -3 4 -5 6 0
-1 2 -3 -4 5 6 0
-1 2 -3 -4 -5 -6 0
-1 -2 3 4 5 -6 0
-1 -2 3 4 -5 6 0
-1 -2 3 -4 5 6 0
-1 -2 3 -4 -5 -6 0
-1 -2 -3 4 5 6 0
-1 -2 -3 4 -5 -6 0
-1 -2 -3 -4 5 -6 0
-1 -2 -3 -4 -5 6 0
1 7 8 9 10 -11 0
1 7 8 9 -10 11 0
1 7 8 -9 10 11 0
1 7 8 -9 -10 -11 0
1 7 -8 9 10 11 0
1 7 -8 9 -10 -11 0
1 7 -8 -9 10 -11 0
1 7 -8 -9 -10 11 0
1 -7 8 9 10 11 0
1 -7 8 9 -10 -11 0
1 -7 8 -9 10 -11 0
1 -7 8 -9 -10 11 0
1 -7 -8 9 10 -11 0
1 -7 -8 9 -10 11 0
1 -7 -8 -9 10 11 0
1 -7 -8 -9 -10 -11 0
-1 7 8 9 10 11 0
-1 7 8 9 -10 -11 0
-1 7 8 -9 10 -11 0
-1 7 8 -9 -10 11 0
-1 7 -8 9 10 -11 0
-1 7 -8 9 -10 11 0
-1 7 -8 -9 10 11 0
-1 7 -8 -9 -10 -11 0
-1 -7 8 9 10 -11 0
-1 -7 8 9 -10 11 0
-1 -7 8 -9 10 11 0
-1 -7 8 -9 -10 -11 0
-1 -7 -8 9 10 11 0
-1 -7 -8 9 -10 -11 0
-1 -7 -8 -9 10 -11 0
-1 -7 -8 -9 -10 11 0
2 7 12 13 14 -15 0
2 7 12 13 -14 15 0
2 7 12 -13 14 15 0
2 7 12 -13 -14 -15 0
2 7 -12 13 14 15 0
2 7 -12 13 -14 -15 0
2 7 -12 -13 14 -15 0
2 7 -12 -13 -14 15 0
2 -7 12 13 14 15 0
2 -7 12 13 -14 -15 0
2 -7 12 -13 14 -15 0
2 -7 12 -13 -14 15 0
2 -7 -12 13 14 -15 0
2 -7 -12 13 -14 15 0
2 -7 -12 -13 14 15 0
2 -7 -12 -13 -14 -15 0
-2 7 12 13 14 15 0
-2 7 12 13 -14 -15 0
-2 7 12 -13 14 -15 0
-2 7 12 -13 -14 15 0
-2 7 -12 13 14 -15 0
-2 7 -12 13 -14 15 0
-2 7 -12 -13 14 15 0
-2 7 -12 -13 -14 -15 0
-2 -7 12 13 14 -15 0
-2 -7 12 13 -14 15 0
-2 -7 12 -13 14 15 0
-2 -7 12 -13 -14 -15 0
-2 -7 -12 13 14 15 0
-2 -7 -12 13 -14 -15 0
-2 -7 -12 -13 14 -15 0
-2 -7 -12 -13 -14 15 0
3 12 16 17 -18 0
3 12 16 -17 18 0
3 12 -16 17 18 0
3 12 -16 -17 -18 0
3 -12 16 17 18 0
3 -12 16 -17 -18 0
3 -12 -16 17 -18 0
3 -12 -16 -17 18 0
-3 12 16 17 18 0
-3 12 16 -17 -18 0
-3 12 -16 17 -18 0
-3 12 -16 -17 18 0
-3 -12 16 17 -18 0
-3 -12 16 -17 18 0
-3 -12 -16 17 18 0
-3 -12 -16 -17 -18 0
8 19 20 -21 0
8 19 -20 21 0
8 -19 20 21 0
8 -19 -20 -21 0
-8 19 20 21 0
-8 19 -20 -21 0
-8 -19 20 -21 0
-8 -19 -20 21 0
9 16 22 23 24 -25 0
9 16 22 23 -24 25 0
9 16 22 -23 24 25 0
9 16 22 -23 -24 -25 0
9 16 -22 23 24 25 0
9 16 -22 23 -24 -25 0
9 16 -22 -23 24 -25 0
9 16 -22 -23 -24 25 0
9 -16 22 23 24 25 0
9 -16 22 23 -24 -25 0
9 -16 22 -23 24 -25 0
9 -16 22 -23 -24 25 0
9 -16 -22 23 24 -25 0
9 -16 -22 23 -24 25 0
9 -16 -22 -23 24 25 0
9 -16 -22 -23 -24 -25 0
-9 16 22 23 24 25 0
-9 16 22 23 -24 -25 0
-9 16 22 -23 24 -25 0
-9 16 22 -23 -24 25 0
-9 16 -22 23 24 -25 0
-9 16 -22 23 -24 25 0
-9 16 -22 -23 24 25 0
-9 16 -22 -23 -24 -25 0
-9 -16 22 23 24 -25 0
-9 -16 22 23 -24 25 0
-9 -16 22 -23 24 25 0
-9 -16 22 -23 -24 -25 0
-9 -16 -22 23 24 25 0
-9 -16 -22 23 -24 -25 0
-9 -16 -22 -23 24 -25 0
-9 -16 -22 -23 -24 25 0
4 17 19 22 26 -27 0
4 17 19 22 -26 27 0
4 17 19 -22 26 27 0
4 17 19 -22 -26 -27 0
4 17 -19 22 26 27 0
4 17 -19 22 -26 -27 0
4 17 -19 -22 26 -27 0
4 17 -19 -22 -26 27 0
4 -17 19 22 26 27 0
4 -17 19 22 -26 -27 0
4 -17 19 -22 26 -27 0
4 -17 19 -22 -26 27 0
4 -17 -19 22 26 -27 0
4 -17 -19 22 -26 27 0
4 -17 -19 -22 26 27 0
4 -17 -19 -22 -26 -27 0
-4 17 19 22 26 27 0
-4 17 19 22 -26 -27 0
-4 17 19 -22 26 -27 0
-4 17 19 -22 -26 27 0
-4 17 -19 22 26 -27 0
-4 17 -19 22 -26 27 0
-4 17 -19 -22 26 27 0
-4 17 -19 -22 -26 -27 0
-4 -17 19 22 26 -27 0
-4 -17 19 22 -26 27 0
-4 -17 19 -22 26 27 0
-4 -17 19 -22 -26 -27 0
-4 -17 -19 22 26 27 0
-4 -17 -19 22 -26 -27 0
-4 -17 -19 -22 26 -27 0
-4 -17 -19 -22 -26 27 0
13 18 20 23 26 28 -29 0
13 18 20 23 26 -28 29 0
13 18 20 23 -26 28 29 0
13 18 20 23 -26 -28 -29 0
13 18 20 -23 26 28 29 0
13 18 20 -23 26 -28 -29 0
13 18 20 -23 -26 28 -29 0
13 18 20 -23 -26 -28 29 0
13 18 -20 23 26 28 29 0
13 18 -20 23 26 -28 -29 0
13 18 -20 23 -26 28 -29 0
13 18 -20 23 -26 -28 29 0
13 18 -20 -23 26 28 -29 0
13 18 -20 -23 26 -28 29 0
13 18 -20 -23 -26 28 29 0
13 18 -20 -23 -26 -28 -29 0
13 -18 20 23 26 28 29 0
13 -18 20 23 26 -28 -29 0
13 -18 20 23 -26 28 -29 0
13 -18 20 23 -26 -28 29 0
13 -18 20 -23 26 28 -29 0
13 -18 20 -23 26 -28 29 0
13 -18 20 -23 -26 28 29 0
13 -18 20 -23 -26 -28 -29 0
13 -18 -20 23 26 28 -29 0
13 -18 -20 23 26 -28 29 0
13 -18 -20 23 -26 28 29 0
13 -18 -20 23 -26 -28 -29 0
13 -18 -20 -23 26 28 29 0
13 -18 -20 -23 26 -28 -29 0
13 -18 -20 -23 -26 28 -29 0
13 -18 -20 -23 -26 -28 29 0
-13 18 20 23 26 28 29 0
-13 18 20 23 26 -28 -29 0
-13 18 20 23 -26 28 -29 0
-13 18 20 23 -26 -28 29 0
-13 18 20 -23 26 28 -29 0
-13 18 20 -23 26 -28 29 0
-13 18 20 -23 -26 28 29 0
-13 18 20 -23 -26 -28 -29 0
-13 18 -20 23 26 28 -29 0
-13 18 -20 23 26 -28 29 0
-13 18 -20 23 -26 28 29 0
-13 18 -20 23 -26 -28 -29 0
-13 18 -20 -23 26 28 29 0
-13 18 -20 -23 26 -28 -29 0
-13 18 -20 -23 -26 28 -29 0
-13 18 -20 -23 -26 -28 29 0
-13 -18 20 23 26 28 -29 0
-13 -18 20 23 26 -28 29 0
-13 -18 20 23 -26 28 29 0
-13 -18 20 23 -26 -28 -29 0
-13 -18 20 -23 26 28 29 0
-13 -18 20 -23 26 -28 -29 0
-13 -18 20 -23 -26 28 -29 0
-13 -18 20 -23 -26 -28 29 0
-13 -18 -20 23 26 28 29 0
-13 -18 -20 23 26 -28 -29 0
-13 -18 -20 23 -26 28 -29 0
-13 -18 -20 23 -26 -28 29 0
-13 -18 -20 -23 26 28 -29 0
-13 -18 -20 -23 26 -28 29 0
-13 -18 -20 -23 -26 28 29 0
-13 -18 -20 -23 -26 -28 -29 0
5 10 14 24 28 -30 0
5 10 14 24 -28 30 0
5 10 14 -24 28 30 0
5 10 14 -24 -28 -30 0
5 10 -14 24 28 30 0
5 10 -14 24 -28 -30 0
5 10 -14 -24 28 -30 0
5 10 -14 -24 -28 30 0
5 -10 14 24 28 30 0
5 -10 14 24 -28 -30 0
5 -10 14 -24 28 -30 0
5 -10 14 -24 -28 30 0
5 -10 -14 24 28 -30 0
5 -10 -14 24 -28 30 0
5 -10 -14 -24 28 30 0
5 -10 -14 -24 -28 -30 0
-5 10 14 24 28 30 0
-5 10 14 24 -28 -30 0
-5 10 14 -24 28 -30 0
-5 10 14 -24 -28 30 0
-5 10 -14 24 28 -30 0
-5 10 -14 24 -28 30 0
-5 10 -14 -24 28 30 0
-5 10 -14 -24 -28 -30 0
-5 -10 14 24 28 -30 0
-5 -10 14 24 -28 30 0
-5 -10 14 -24 28 30 0
-5 -10 14 -24 -28 -30 0
-5 -10 -14 24 28 30 0
-5 -10 -14 24 -28 -30 0
-5 -10 -14 -24 28 -30 0
-5 -10 -14 -24 -28 30 0
6 11 15 21 25 27 29 -30 0
6 11 15 21 25 27 -29 30 0
6 11 15 21 25 -27 29 30 0
6 11 15 21 25 -27 -29 -30 0
6 11 15 21 -25 27 29 30 0
6 11 15 21 -25 27 -29 -30 0
6 11 15 21 -25 -27 29 -30 0
6 11 15 21 -25 -27 -29 30 0
6 11 15 -21 25 27 29 30 0
6 11 15 -21 25 27 -29 -30 0
6 11 15 -21 25 -27 29 -30 0
6 11 15 -21 25 -27 -29 30 0
6 11 15 -21 -25 27 29 -30 0
6 11 15 -21 -25 27 -29 30 0
6 11 15 -21 -25 -27 29 30 0
6 11 15 -21 -25 -27 -29 -30 0
6 11 -15 21 25 27 29 30 0
6 11 -15 21 25 27 -29 -30 0
6 11 -15 21 25 -27 29 -30 0
6 11 -15 21 25 -27 -29 30 0
6 11 -15 21 -25 27 29 -30 0
6 11 -15 21 -25 27 -29 30 0
6 11 -15 21 -25 -27 29 30 0
6 11 -15 21 -25 -27 -29 -30 0
6 11 -15 -21 25 27 29 -30 0
6 11 -15 -21 25 27 -29 30 0
6 11 -15 -21 25 -27 29 30 0
6 11 -15 -21 25 -27 -29 -30 0
6 11 -15 -21 -25 27 29 30 0
6 11 -15 -21 -25 27 -29 -30 0
6 11 -15 -21 -25 -27 29 -30 0
6 11 -15 -21 -25 -27 -29 30 0
6 -11 15 21 25 27 29 30 0
6 -11 15 21 25 27 -29 -30 0
6 -11 15 21 25 -27 29 -30 0
6 -11 15 21 25 -27 -29 30 0
6 -11 15 21 -25 27 29 -30 0
6 -11 15 21 -25 27 -29 30 0
6 -11 15 21 -25 -27 29 30 0
6 -11 15 21 -25 -27 -29 -30 0
6 -11 15 -21 25 27 29 -30 0
6 -11 15 -21 25 27 -29 30 0
6 -11 15 -21 25 -27 29 30 0
6 -11 15 -21 25 -27 -29 -30 0
6 -11 15 -21 -25 27 29 30 0
6 -11 15 -21 -25 27 -29 -30 0
6 -11 15 -21 -25 -27 29 -30 0
6 -11 15 -21 -25 -27 -29 30 0
6 -11 -15 21 25 27 29 -30 0
6 -11 -15 21 25 27 -29 30 0
6 -11 -15 21 25 -27 29 30 0
6 -11 -15 21 25 -27 -29 -30 0
6 -11 -15 21 -25 27 29 30 0
6 -11 -15 21 -25 27 -29 -30 0
6 -11 -15 21 -25 -27 29 -30 0
6 -11 -15 21 -25 -27 -29 30 0
6 -11 -15 -21 25 27 29 30 0
6 -11 -15 -21 25 27 -29 -30 0
6 -11 -15 -21 25 -27 29 -30 0
6 -11 -15 -21 25 -27 -29 30 0
6 -11 -15 -21 -25 27 29 -30 0
6 -11 -15 -21 -25 27 -29 30 0
6 -11 -15 -21 -25 -27 29 30 0
6 -11 -15 -21 -25 -27 -29 -30 0
-6 11 15 21 25 27 29 30 0
-6 11 15 21 25 27 -29 -30 0
-6 11 15 21 25 -27 29 -30 0
-6 11 15 21 25 -27 -29 30 0
-6 11 15 21 -25 27 29 -30 0
-6 11 15 21 -25 27 -29 30 0
-6 11 15 21 -25 -27 29 30 0
-6 11 15 21 -25 -27 -29 -30 0
-6 11 15 -21 25 27 29 -30 0
-6 11 15 -21 25 27 -29 30 0
-6 11 15 -21 25 -27 29 30 0
-6 11 15 -21 25 -27 -29 -30 0
-6 11 15 -21 -25 27 29 30 0
-6 11 15 -21 -25 27 -29 -30 0
-6 11 15 -21 -25 -27 29 -30 0
-6 11 15 -21 -25 -27 -29 30 0
-6 11 -15 21 25 27 29 -30 0
-6 11 -15 21 25 27 -29 30 0
-6 11 -15 21 25 -27 29 30 0
-6 11 -15 21 25 -27 -29 -30 0
-6 11 -15 21 -25 27 29 30 0
-6 11 -15 21 -25 27 -29 -30 0
-6 11 -15 21 -25 -27 29 -30 0
-6 11 -15 21 -25 -27 -29 30 0
-6 11 -15 -21 25 27 29 30 0
-6 11 -15 -21 25 27 -29 -30 0
-6 11 -15 -21 25 -27 29 -30 0
-6 11 -15 -21 25 -27 -29 30 0
-6 11 -15 -21 -25 27 29 -30 0
-6 11 -15 -21 -25 27 -29 30 0
-6 11 -15 -21 -25 -27 29 30 0
-6 11 -15 -21 -25 -27 -29 -30 0
-6 -11 15 21 25 27 29 -30 0
-6 -11 15 21 25 27 -29 30 0
-6 -11 15 21 25 -27 29 30 0
-6 -11 15 21 25 -27 -29 -30 0
-6 -11 15 21 -25 27 29 30 0
-6 -11 15 21 -25 27 -29 -30 0
-6 -11 15 21 -25 -27 29 -30 0
-6 -11 15 21 -25 -27 -29 30 0
-6 -11 15 -21 25 27 29 30 0
-6 -11 15 -21 25 27 -29 -30 0
-6 -11 15 -21 25 -27 29 -30 0
-6 -11 15 -21 25 -27 -29 30 0
-6 -11 15 -21 -25 27 29 -30 0
-6 -11 15 -21 -25 27 -29 30 0
-6 -11 15 -21 -25 -27 29 30 0
-6 -11 15 -21 -25 -27 -29 -30 0
-6 -11 -15 21 25 27 29 30 0
-6 -11 -15 21 25 27 -29 -30 0
-6 -11 -15 21 25 -27 29 -30 0
-6 -11 -15 21 25 -27 -29 30 0
-6 -11 -15 21 -25 27 29 -30 0
-6 -11 -15 21 -25 27 -29 30 0
-6 -11 -15 21 -25 -27 29 30 0
-6 -11 -15 21 -25 -27 -29 -30 0
-6 -11 -15 -21 25 27 29 -30 0
-6 -11 -15 -21 25 27 -29 30 0
-6 -11 -15 -21 25 -27 29 30 0
-6 -11 -15 -21 25 -27 -29 -30 0
-6 -11 -15 -21 -25 27 29 30 0
-6 -11 -15 -21 -25 27 -29 -30 0
-6 -11 -15 -21 -25 -27 29 -30 0
-6 -11 -15 -21 -25 -27 -29 30 0